size = 45;

given = [|
1,4,3|
1,21,2|
1,22,6|
1,33,6|
1,35,3|
1,44,4|
1,45,2|
2,33,6|
3,10,2|
3,27,1|
3,28,4|
3,31,3|
3,34,3|
4,7,6|
4,29,3|
5,29,6|
5,30,5|
5,37,3|
5,38,0|
6,18,5|
6,21,3|
6,38,4|
6,45,9|
7,1,0|
7,18,6|
7,25,3|
7,30,1|
7,31,4|
7,35,4|
7,36,2|
7,43,6|
7,44,2|
8,2,1|
8,3,2|
8,15,6|
8,24,1|
8,25,2|
8,27,4|
8,29,1|
8,30,4|
8,38,2|
8,43,5|
9,8,1|
9,9,4|
9,14,3|
9,31,1|
9,32,2|
9,33,2|
9,35,1|
9,36,1|
10,2,3|
10,4,2|
10,5,8|
10,17,3|
10,19,6|
10,24,2|
10,25,6|
10,37,1|
10,38,3|
10,44,2|
11,8,4|
11,18,4|
11,42,3|
12,9,4|
12,18,3|
12,41,5|
13,3,1|
13,4,1|
13,12,2|
14,1,5|
14,2,4|
16,2,3|
16,40,2|
17,32,7|
17,33,5|
17,35,6|
17,37,2|
17,38,2|
18,10,8|
19,7,4|
19,8,4|
19,10,6|
19,28,2|
19,29,2|
20,39,2|
20,40,0|
20,41,8|
21,12,2|
21,13,2|
21,14,2|
21,17,6|
21,40,2|
21,42,3|
21,43,0|
22,8,2|
22,17,3|
23,2,7|
23,18,1|
23,19,2|
23,25,4|
23,29,8|
23,32,2|
23,34,2|
23,44,1|
23,45,3|
24,5,2|
24,11,1|
24,12,2|
24,14,1|
24,15,6|
25,2,2|
25,21,2|
25,24,1|
25,25,0|
25,32,2|
25,33,2|
25,38,3|
25,39,0|
26,2,3|
26,3,9|
26,9,2|
26,16,6|
26,18,2|
26,22,9|
26,30,8|
27,3,3|
27,6,4|
27,27,3|
27,28,2|
27,40,2|
27,43,5|
28,9,7|
28,16,1|
28,17,2|
28,18,3|
28,19,2|
28,20,2|
28,25,5|
28,42,3|
29,8,7|
29,18,5|
29,21,5|
29,26,3|
29,27,4|
29,33,1|
29,34,2|
30,27,7|
30,34,4|
30,43,1|
30,44,6|
31,1,3|
31,3,5|
31,4,4|
31,27,7|
32,17,2|
32,25,2|
32,33,2|
33,9,4|
34,3,4|
34,4,3|
34,14,2|
34,15,5|
34,27,2|
34,42,2|
34,44,2|
35,11,7|
35,14,6|
35,15,6|
35,39,2|
36,14,2|
36,15,4|
37,1,5|
37,4,3|
37,9,3|
37,23,1|
37,24,9|
37,25,6|
37,34,5|
37,36,8|
37,44,3|
38,6,2|
38,7,1|
38,29,7|
39,25,3|
39,29,6|
39,30,0|
40,30,4|
40,35,9|
40,40,2|
40,42,2|
40,43,2|
41,15,5|
41,18,8|
41,20,8|
41,25,4|
41,30,6|
41,32,2|
41,35,3|
42,9,1|
42,10,0|
42,12,2|
42,14,2|
42,19,2|
42,23,2|
42,24,2|
42,28,2|
42,30,2|
42,33,3|
44,14,9|
44,15,2|
45,36,1|
45,37,5|
46,17,4|];